W=5;
H=6;

MAX_TIME=19;
MAX_TRACKS=18;

TARGET=(1,5);

TRAINS=[(6,1,TOP),(1,1,DOWN),(4,5,TOP)];

INIT_POS=[
(1,1,STRAIGHT_TD),
(1,3,STRAIGHT_RL),
(1,5,STRAIGHT_RL),
(3,5,STRAIGHT_TD),
(4,5,STRAIGHT_TD),
(5,1,STRAIGHT_TD),
(6,1,STRAIGHT_TD),
(6,3,STRAIGHT_RL),
];
TUNNEL_PAIRS=[];

GATES=[];
ACTIVATIONS=[];

DSWITCHES=[];

STATIONS=[
  (1,3,1),
  (6,3,2),
];
